737
192.0 550.0 
162.0 424.0 
150.0 434.0 
216.0 476.0 
258.0 547.0 
192.0 460.0 
174.0 397.0 
264.0 398.0 
318.0 446.0 
222.0 338.0 
306.0 454.0 
276.0 436.0 
306.0 454.0 
270.0 392.0 
294.0 352.0 
330.0 317.0 
288.0 352.0 
348.0 331.0 
282.0 299.0 
384.0 278.0 
198.0 586.0 
228.0 647.0 
204.0 448.0 
210.0 485.0 
216.0 439.0 
168.0 351.0 
174.0 397.0 
264.0 402.0 
246.0 354.0 
234.0 638.0 
198.0 405.0 
168.0 351.0 
168.0 351.0 
270.0 393.0 
192.0 414.0 
198.0 460.0 
204.0 408.0 
210.0 397.0 
204.0 577.0 
162.0 424.0 
162.0 424.0 
186.0 455.0 
258.0 547.0 
192.0 460.0 
204.0 398.0 
216.0 379.0 
174.0 397.0 
324.0 538.0 
192.0 316.0 
264.0 402.0 
276.0 436.0 
306.0 454.0 
270.0 392.0 
282.0 299.0 
348.0 331.0 
450.0 364.0 
198.0 586.0 
252.0 635.0 
174.0 420.0 
216.0 439.0 
216.0 437.0 
174.0 376.0 
264.0 399.0 
198.0 313.0 
270.0 337.0 
276.0 325.0 
228.0 606.0 
216.0 387.0 
246.0 365.0 
282.0 532.0 
264.0 548.0 
204.0 577.0 
186.0 508.0 
204.0 537.0 
180.0 455.0 
180.0 448.0 
276.0 592.0 
252.0 453.0 
180.0 434.0 
264.0 443.0 
174.0 397.0 
282.0 474.0 
282.0 477.0 
228.0 335.0 
276.0 436.0 
306.0 454.0 
288.0 365.0 
276.0 333.0 
294.0 352.0 
330.0 317.0 
252.0 258.0 
198.0 618.0 
240.0 634.0 
186.0 455.0 
168.0 351.0 
162.0 351.0 
174.0 397.0 
288.0 428.0 
216.0 347.0 
252.0 357.0 
306.0 351.0 
258.0 408.0 
168.0 351.0 
162.0 351.0 
162.0 351.0 
204.0 577.0 
204.0 552.0 
162.0 427.0 
228.0 515.0 
186.0 455.0 
216.0 477.0 
174.0 367.0 
240.0 410.0 
168.0 351.0 
270.0 481.0 
222.0 334.0 
222.0 336.0 
222.0 336.0 
318.0 439.0 
300.0 456.0 
306.0 454.0 
306.0 397.0 
300.0 406.0 
318.0 390.0 
294.0 352.0 
336.0 414.0 
348.0 331.0 
282.0 299.0 
384.0 278.0 
210.0 439.0 
198.0 413.0 
216.0 439.0 
294.0 520.0 
276.0 481.0 
252.0 452.0 
252.0 452.0 
204.0 353.0 
276.0 592.0 
270.0 442.0 
270.0 444.0 
276.0 481.0 
216.0 546.0 
168.0 374.0 
246.0 511.0 
246.0 511.0 
198.0 458.0 
174.0 397.0 
162.0 302.0 
252.0 348.0 
246.0 420.0 
264.0 333.0 
264.0 402.0 
264.0 392.0 
306.0 454.0 
246.0 369.0 
270.0 392.0 
198.0 586.0 
228.0 647.0 
138.0 362.0 
168.0 351.0 
168.0 351.0 
174.0 397.0 
174.0 397.0 
192.0 468.0 
318.0 390.0 
300.0 355.0 
306.0 351.0 
336.0 313.0 
144.0 364.0 
150.0 361.0 
204.0 577.0 
186.0 486.0 
240.0 600.0 
240.0 520.0 
192.0 460.0 
210.0 392.0 
234.0 422.0 
174.0 367.0 
174.0 331.0 
240.0 405.0 
228.0 419.0 
222.0 377.0 
204.0 405.0 
150.0 311.0 
258.0 408.0 
234.0 316.0 
222.0 338.0 
300.0 452.0 
300.0 456.0 
306.0 454.0 
294.0 352.0 
336.0 414.0 
252.0 258.0 
222.0 569.0 
234.0 641.0 
204.0 449.0 
270.0 526.0 
246.0 309.0 
228.0 328.0 
312.0 391.0 
276.0 324.0 
198.0 458.0 
204.0 504.0 
312.0 445.0 
216.0 644.0 
204.0 577.0 
234.0 637.0 
186.0 488.0 
258.0 634.0 
174.0 416.0 
198.0 440.0 
216.0 476.0 
222.0 464.0 
204.0 398.0 
180.0 417.0 
300.0 562.0 
174.0 397.0 
168.0 351.0 
306.0 454.0 
294.0 352.0 
288.0 352.0 
396.0 329.0 
348.0 331.0 
282.0 299.0 
444.0 369.0 
210.0 527.0 
246.0 451.0 
228.0 464.0 
168.0 351.0 
168.0 351.0 
162.0 351.0 
174.0 397.0 
174.0 397.0 
174.0 397.0 
264.0 402.0 
258.0 411.0 
318.0 390.0 
252.0 357.0 
306.0 454.0 
258.0 509.0 
216.0 347.0 
204.0 353.0 
270.0 392.0 
228.0 676.0 
168.0 462.0 
222.0 607.0 
198.0 480.0 
186.0 455.0 
210.0 441.0 
186.0 457.0 
210.0 392.0 
294.0 518.0 
234.0 411.0 
174.0 397.0 
192.0 316.0 
264.0 392.0 
306.0 454.0 
270.0 392.0 
294.0 362.0 
294.0 352.0 
324.0 314.0 
198.0 502.0 
204.0 443.0 
270.0 593.0 
174.0 397.0 
192.0 316.0 
234.0 368.0 
252.0 411.0 
252.0 357.0 
318.0 384.0 
306.0 351.0 
168.0 351.0 
204.0 310.0 
264.0 402.0 
246.0 365.0 
204.0 577.0 
228.0 606.0 
204.0 539.0 
162.0 424.0 
294.0 518.0 
162.0 382.0 
174.0 397.0 
276.0 434.0 
192.0 312.0 
264.0 402.0 
300.0 456.0 
324.0 430.0 
306.0 454.0 
270.0 392.0 
360.0 332.0 
336.0 290.0 
198.0 586.0 
186.0 455.0 
234.0 518.0 
198.0 413.0 
174.0 397.0 
192.0 369.0 
246.0 365.0 
270.0 337.0 
252.0 357.0 
216.0 487.0 
264.0 392.0 
228.0 393.0 
336.0 469.0 
168.0 351.0 
186.0 508.0 
168.0 415.0 
204.0 449.0 
204.0 398.0 
150.0 388.0 
210.0 432.0 
210.0 441.0 
192.0 412.0 
192.0 401.0 
288.0 421.0 
276.0 435.0 
246.0 368.0 
288.0 428.0 
306.0 454.0 
270.0 392.0 
318.0 390.0 
348.0 331.0 
282.0 299.0 
222.0 643.0 
168.0 420.0 
168.0 351.0 
168.0 351.0 
156.0 409.0 
156.0 409.0 
318.0 493.0 
318.0 493.0 
204.0 357.0 
300.0 355.0 
306.0 343.0 
162.0 351.0 
168.0 351.0 
204.0 310.0 
276.0 324.0 
198.0 577.0 
168.0 462.0 
174.0 504.0 
234.0 594.0 
168.0 425.0 
174.0 429.0 
204.0 491.0 
204.0 544.0 
204.0 544.0 
210.0 535.0 
198.0 409.0 
174.0 435.0 
174.0 434.0 
120.0 384.0 
198.0 460.0 
204.0 451.0 
168.0 397.0 
174.0 397.0 
330.0 581.0 
174.0 397.0 
150.0 311.0 
186.0 419.0 
216.0 402.0 
198.0 354.0 
270.0 391.0 
258.0 408.0 
324.0 486.0 
246.0 368.0 
246.0 368.0 
264.0 345.0 
270.0 341.0 
222.0 334.0 
204.0 358.0 
306.0 454.0 
306.0 454.0 
270.0 392.0 
246.0 354.0 
306.0 338.0 
312.0 388.0 
360.0 323.0 
162.0 302.0 
228.0 678.0 
234.0 632.0 
132.0 405.0 
186.0 492.0 
174.0 429.0 
204.0 491.0 
204.0 544.0 
210.0 535.0 
216.0 478.0 
210.0 488.0 
174.0 434.0 
120.0 384.0 
198.0 460.0 
204.0 451.0 
204.0 451.0 
222.0 439.0 
174.0 397.0 
204.0 408.0 
216.0 402.0 
198.0 354.0 
228.0 393.0 
270.0 391.0 
240.0 365.0 
264.0 345.0 
258.0 408.0 
252.0 403.0 
246.0 368.0 
246.0 368.0 
264.0 345.0 
204.0 358.0 
306.0 454.0 
294.0 413.0 
270.0 392.0 
246.0 354.0 
264.0 288.0 
282.0 314.0 
294.0 303.0 
294.0 303.0 
222.0 288.0 
306.0 454.0 
294.0 352.0 
216.0 292.0 
198.0 577.0 
228.0 587.0 
204.0 577.0 
240.0 635.0 
186.0 492.0 
222.0 578.0 
204.0 491.0 
204.0 544.0 
204.0 544.0 
216.0 487.0 
126.0 374.0 
180.0 426.0 
270.0 593.0 
276.0 592.0 
174.0 434.0 
180.0 434.0 
180.0 434.0 
162.0 351.0 
168.0 345.0 
174.0 397.0 
174.0 397.0 
162.0 351.0 
228.0 393.0 
258.0 408.0 
270.0 341.0 
276.0 326.0 
336.0 469.0 
264.0 392.0 
306.0 454.0 
270.0 392.0 
246.0 354.0 
276.0 354.0 
270.0 322.0 
270.0 322.0 
300.0 329.0 
312.0 370.0 
312.0 370.0 
294.0 296.0 
174.0 397.0 
162.0 302.0 
246.0 368.0 
246.0 368.0 
264.0 345.0 
216.0 685.0 
234.0 635.0 
168.0 462.0 
186.0 492.0 
216.0 572.0 
198.0 489.0 
204.0 544.0 
216.0 487.0 
216.0 487.0 
222.0 478.0 
174.0 434.0 
180.0 434.0 
180.0 434.0 
180.0 378.0 
168.0 397.0 
174.0 397.0 
174.0 397.0 
162.0 351.0 
198.0 354.0 
228.0 393.0 
270.0 391.0 
192.0 316.0 
168.0 351.0 
258.0 408.0 
270.0 341.0 
264.0 333.0 
198.0 313.0 
198.0 313.0 
306.0 341.0 
270.0 392.0 
246.0 354.0 
222.0 637.0 
246.0 368.0 
246.0 368.0 
270.0 334.0 
216.0 685.0 
234.0 635.0 
234.0 635.0 
210.0 517.0 
186.0 492.0 
228.0 565.0 
204.0 544.0 
216.0 487.0 
126.0 374.0 
180.0 426.0 
270.0 593.0 
276.0 592.0 
174.0 434.0 
180.0 434.0 
180.0 434.0 
144.0 364.0 
180.0 434.0 
258.0 495.0 
174.0 397.0 
174.0 397.0 
174.0 397.0 
216.0 342.0 
162.0 302.0 
258.0 408.0 
168.0 351.0 
252.0 352.0 
264.0 335.0 
306.0 454.0 
264.0 392.0 
300.0 456.0 
306.0 454.0 
246.0 354.0 
252.0 258.0 
270.0 282.0 
294.0 303.0 
222.0 637.0 
228.0 393.0 
264.0 333.0 
258.0 394.0 
228.0 319.0 
198.0 577.0 
204.0 577.0 
126.0 369.0 
210.0 484.0 
198.0 489.0 
204.0 544.0 
204.0 544.0 
216.0 487.0 
126.0 374.0 
180.0 426.0 
216.0 487.0 
276.0 592.0 
174.0 434.0 
120.0 384.0 
198.0 460.0 
192.0 414.0 
192.0 414.0 
204.0 451.0 
204.0 451.0 
198.0 405.0 
198.0 405.0 
174.0 397.0 
174.0 337.0 
216.0 402.0 
198.0 354.0 
186.0 328.0 
270.0 391.0 
240.0 365.0 
258.0 408.0 
252.0 403.0 
246.0 368.0 
246.0 368.0 
264.0 345.0 
276.0 436.0 
318.0 383.0 
252.0 357.0 
270.0 392.0 
246.0 354.0 
288.0 376.0 
276.0 381.0 
204.0 577.0 
240.0 635.0 
228.0 605.0 
222.0 578.0 
222.0 573.0 
210.0 478.0 
234.0 558.0 
204.0 544.0 
216.0 487.0 
222.0 478.0 
210.0 441.0 
210.0 441.0 
174.0 434.0 
198.0 460.0 
204.0 451.0 
168.0 397.0 
174.0 397.0 
174.0 397.0 
216.0 402.0 
198.0 354.0 
228.0 393.0 
234.0 424.0 
270.0 391.0 
300.0 463.0 
258.0 408.0 
306.0 459.0 
270.0 341.0 
270.0 341.0 
294.0 467.0 
306.0 454.0 
264.0 392.0 
300.0 410.0 
306.0 454.0 
276.0 324.0 
270.0 392.0 
270.0 337.0 
276.0 325.0 
264.0 345.0 
222.0 637.0 
234.0 635.0 
234.0 635.0 
222.0 611.0 
204.0 544.0 
210.0 535.0 
114.0 332.0 
216.0 487.0 
222.0 478.0 
174.0 434.0 
198.0 460.0 
204.0 451.0 
180.0 378.0 
234.0 476.0 
174.0 397.0 
330.0 581.0 
174.0 397.0 
186.0 419.0 
174.0 397.0 
216.0 342.0 
162.0 302.0 
192.0 316.0 
324.0 535.0 
258.0 408.0 
258.0 408.0 
168.0 351.0 
168.0 351.0 
168.0 351.0 
246.0 368.0 
312.0 396.0 
270.0 341.0 
258.0 394.0 
270.0 333.0 
270.0 333.0 
264.0 392.0 
270.0 334.0 
282.0 375.0 
282.0 314.0 
294.0 303.0 
270.0 341.0 
258.0 283.0 
306.0 454.0 
288.0 365.0 
216.0 685.0 
222.0 677.0 
204.0 577.0 
186.0 492.0 
240.0 635.0 
198.0 489.0 
216.0 487.0 
216.0 487.0 
222.0 478.0 
174.0 434.0 
180.0 434.0 
180.0 434.0 
204.0 448.0 
234.0 474.0 
210.0 443.0 
174.0 397.0 
174.0 397.0 
228.0 393.0 
258.0 408.0 
306.0 459.0 
306.0 454.0 
264.0 392.0 
270.0 334.0 
270.0 334.0 
276.0 324.0 
270.0 392.0 
294.0 301.0 
180.0 543.0 
258.0 408.0 
228.0 393.0 
216.0 402.0 
258.0 405.0 
294.0 363.0 
258.0 405.0 
216.0 644.0 
198.0 577.0 
210.0 517.0 
186.0 492.0 
240.0 635.0 
216.0 572.0 
204.0 491.0 
126.0 369.0 
204.0 544.0 
138.0 358.0 
192.0 456.0 
174.0 434.0 
192.0 414.0 
186.0 375.0 
192.0 414.0 
198.0 405.0 
198.0 405.0 
138.0 327.0 
216.0 441.0 
126.0 384.0 
174.0 397.0 
174.0 397.0 
174.0 397.0 
150.0 311.0 
228.0 393.0 
198.0 354.0 
270.0 391.0 
192.0 316.0 
258.0 408.0 
276.0 436.0 
306.0 454.0 
270.0 334.0 
270.0 392.0 
246.0 354.0 
294.0 303.0 
264.0 288.0 
264.0 288.0 
294.0 303.0 
288.0 376.0 
246.0 368.0 
246.0 309.0 
246.0 368.0 
246.0 321.0 

0 1 3 4 2 5 8 12 11 16 38 45 51 56 60 62 63 
0 1 3 11 7 8 4 2 5 9 25 32 51 63 
0 1 3 7 8 4 2 5 9 13 40 51 56 63 
0 1 3 7 12 8 2 5 9 14 33 40 32 51 56 63 
0 1 3 4 8 2 5 9 13 19 26 33 40 32 51 56 60 63 
0 1 3 7 4 2 5 8 13 9 14 33 32 60 63 
0 2 1 3 6 10 16 11 8 13 53 60 63 
0 1 3 6 11 10 16 23 38 45 39 32 40 33 63 
0 1 3 4 8 13 19 26 33 32 40 41 34 48 53 60 63 
0 1 3 7 11 16 30 38 39 32 40 33 63 
0 1 3 4 8 13 19 14 20 27 34 33 41 53 60 62 63 
0 1 3 4 8 13 19 14 20 27 34 33 53 60 62 63 
0 1 3 4 8 13 19 14 20 27 34 33 41 53 60 62 63 
0 1 2 8 13 19 14 20 27 34 33 41 60 62 63 
0 1 7 8 13 19 14 20 27 34 41 48 53 60 63 
0 2 8 9 14 20 27 35 42 34 33 25 32 60 63 
0 1 3 11 10 15 28 36 43 22 44 54 58 61 63 
0 1 3 11 10 15 22 29 28 36 43 30 44 49 61 63 
0 1 3 11 10 15 28 36 22 30 44 49 61 63 
0 11 16 10 15 21 28 36 43 37 22 30 44 49 61 63 
0 2 1 3 7 4 8 13 18 32 39 45 51 56 60 62 61 63 
0 2 1 3 7 4 8 13 19 25 32 39 51 56 60 62 59 58 61 63 
0 1 3 7 8 2 5 9 14 33 40 32 51 56 63 
0 1 3 7 4 8 2 5 9 14 33 40 32 51 56 63 
0 1 3 4 8 18 13 9 14 33 40 32 51 56 63 
0 1 3 6 10 16 11 8 13 53 60 63 
0 2 1 3 6 10 16 11 8 13 53 60 63 
0 1 3 6 11 16 30 38 39 32 40 33 53 60 63 
0 1 7 8 13 19 14 20 27 34 41 60 62 63 
0 2 1 3 7 12 8 13 19 25 32 39 51 56 60 62 59 58 61 63 
0 1 3 7 12 8 13 9 14 33 32 40 62 63 
0 1 3 6 10 16 11 8 13 53 60 63 
0 1 3 6 10 16 11 8 13 53 60 63 
0 1 3 6 11 16 30 38 39 32 40 33 41 60 63 
0 1 3 7 4 8 13 9 14 33 32 40 62 63 
0 2 1 3 7 4 8 13 9 14 33 32 40 62 63 
0 1 3 6 11 7 8 13 9 14 33 32 60 63 
0 2 1 3 7 8 13 9 14 33 25 32 40 63 
0 2 1 3 7 12 8 13 18 32 39 45 51 56 60 62 61 63 
0 1 3 11 7 8 4 2 5 9 25 32 51 63 
0 1 3 11 7 8 4 2 5 9 25 32 51 63 
0 1 3 7 8 4 2 5 9 14 33 40 51 56 63 
0 1 3 4 8 2 5 9 13 19 26 33 40 32 51 56 60 63 
0 1 3 7 4 2 5 8 13 9 14 33 32 60 63 
0 1 3 7 4 8 18 13 9 14 33 40 32 63 
0 1 3 6 10 16 23 17 12 8 13 9 33 63 
0 2 1 3 6 10 16 11 8 13 53 60 63 
0 2 1 3 4 8 13 9 14 19 26 33 41 34 48 53 60 62 63 
0 1 3 6 10 15 22 16 11 8 13 63 
0 1 3 6 11 16 30 38 39 32 40 33 53 60 63 
0 1 3 4 8 13 19 14 20 27 34 33 53 60 62 63 
0 1 3 4 8 13 19 14 20 27 34 33 41 53 60 62 63 
0 1 2 8 13 19 14 20 27 34 33 41 60 62 63 
0 1 3 11 10 15 28 36 22 30 44 49 61 63 
0 1 3 11 10 15 22 29 28 36 43 30 44 49 61 63 
0 1 3 6 10 15 21 28 36 29 22 16 30 37 43 49 44 50 63 
0 2 1 3 7 4 8 13 18 32 39 45 51 56 60 62 61 63 
0 2 4 1 3 7 8 9 14 19 25 32 39 45 51 56 60 62 61 63 
0 1 3 7 8 4 2 5 9 33 40 32 51 63 
0 1 3 4 8 18 13 9 14 33 40 32 51 56 63 
0 1 3 7 11 17 18 8 13 9 14 33 40 62 63 
0 1 3 7 4 8 13 9 14 18 32 40 63 
0 1 3 11 17 23 38 31 39 32 40 33 41 60 63 
0 1 3 11 10 16 23 31 39 32 40 63 
0 2 8 13 19 14 20 27 34 33 32 40 62 63 
0 2 8 13 19 14 20 27 34 33 41 40 62 63 
0 2 1 3 7 4 8 13 19 25 32 39 45 51 56 60 62 61 63 
0 1 3 7 11 16 23 38 31 39 32 40 62 63 
0 1 3 7 11 16 23 38 39 32 40 33 41 63 
0 1 3 4 8 13 19 14 20 26 33 40 32 51 56 60 62 63 
0 1 2 4 8 13 9 14 19 26 33 40 32 51 56 60 62 63 
0 2 1 3 7 12 8 13 18 32 39 45 51 56 60 62 61 63 
0 1 3 6 11 7 4 8 13 18 32 51 56 60 62 63 
0 2 1 3 11 7 12 8 13 25 32 45 51 56 60 62 63 
0 1 3 7 8 4 2 5 9 14 25 32 51 56 63 
0 1 3 7 4 2 5 8 13 9 14 25 18 56 63 
0 2 1 3 4 8 13 9 14 19 26 33 40 32 51 56 60 62 63 
0 2 4 1 3 7 8 13 19 26 34 33 40 32 51 63 
0 2 4 1 3 6 10 16 11 8 13 53 60 63 
0 1 3 4 8 13 9 14 19 26 33 40 32 31 56 63 
0 2 1 3 6 10 16 11 8 13 53 60 63 
0 1 2 4 8 13 19 25 32 40 33 34 48 53 60 62 63 
0 1 3 7 11 23 38 45 39 32 40 33 48 53 60 62 63 
0 1 3 11 16 23 38 31 39 32 40 33 63 
0 1 3 4 8 13 19 14 20 27 34 33 53 60 62 63 
0 1 3 4 8 13 19 14 20 27 34 33 41 53 60 62 63 
0 1 4 8 13 19 14 20 27 34 33 40 41 60 63 
0 2 8 13 19 14 20 27 34 33 40 53 60 63 
0 1 7 8 13 19 14 20 27 34 41 48 53 60 63 
0 2 8 9 14 20 27 35 42 34 33 25 32 60 63 
0 1 3 11 16 10 15 28 36 43 22 63 
0 2 8 4 1 3 7 12 18 32 39 45 51 56 60 62 59 61 63 
0 2 1 3 4 7 12 8 13 19 25 32 39 45 51 56 60 62 61 63 
0 1 3 7 8 4 2 5 9 14 33 40 51 56 63 
0 1 3 6 10 16 11 8 13 53 60 63 
0 1 3 6 10 16 11 8 13 40 62 63 
0 2 1 3 6 10 16 11 8 13 53 60 63 
0 1 3 11 16 23 38 45 39 32 40 33 48 53 60 63 
0 1 3 7 11 16 23 38 39 32 40 33 63 
0 1 2 8 13 19 14 20 27 34 33 40 62 63 
0 2 8 13 19 14 20 27 34 33 40 41 53 60 63 
0 1 3 6 10 16 11 8 9 14 34 48 53 60 63 
0 1 3 6 10 16 11 8 13 53 60 63 
0 1 3 6 10 16 11 8 13 40 62 63 
0 1 3 6 10 16 11 8 13 40 62 63 
0 2 1 3 7 12 8 13 18 32 39 45 51 56 60 62 61 63 
0 2 1 3 7 12 8 13 18 32 39 45 51 55 58 61 59 63 
0 2 5 9 13 8 4 1 3 17 18 32 51 63 
0 2 1 3 6 10 16 11 4 8 13 18 24 32 51 56 63 
0 1 3 7 8 4 2 5 9 14 33 40 51 56 63 
0 2 1 3 6 10 11 17 12 8 13 25 32 51 56 63 
0 1 3 7 11 17 12 8 18 13 9 33 63 
0 1 3 7 11 17 23 38 45 51 39 32 40 33 63 
0 1 3 6 10 16 11 8 13 53 60 63 
0 2 1 3 7 4 8 13 19 14 20 27 34 41 60 62 63 
0 1 3 6 11 16 23 30 38 39 32 40 63 
0 1 3 11 10 16 23 17 24 32 40 33 63 
0 1 3 11 10 16 23 17 24 32 40 33 63 
0 1 3 4 8 13 9 14 19 33 41 34 27 48 53 60 63 
0 1 2 4 8 13 19 14 20 27 34 33 41 53 60 62 63 
0 1 3 4 8 13 19 14 20 27 34 33 41 53 60 62 63 
0 1 3 4 8 13 19 20 27 34 33 41 48 53 60 63 
0 1 3 4 8 13 19 26 33 41 34 20 48 53 60 63 
0 1 2 8 13 19 14 20 27 34 33 41 48 53 60 63 
0 1 7 8 13 19 14 20 27 34 41 48 53 60 63 
0 2 8 13 9 19 14 20 27 34 33 41 48 53 60 62 63 
0 1 3 11 10 15 22 29 28 36 43 30 44 49 61 63 
0 1 3 11 10 15 28 36 22 30 44 49 61 63 
0 11 16 10 15 21 28 36 43 37 22 30 44 49 61 63 
0 2 1 3 6 11 17 12 8 13 33 40 32 51 63 
0 2 1 3 7 8 13 9 14 33 40 32 51 63 
0 1 3 4 8 18 13 9 14 33 40 32 51 56 63 
0 1 3 4 8 13 9 14 19 26 33 41 40 32 51 56 60 63 
0 1 3 7 11 17 23 38 45 39 32 40 33 41 60 62 63 
0 1 3 7 4 8 13 19 25 32 39 40 33 41 60 63 
0 1 3 7 4 8 13 19 25 32 39 40 33 41 60 63 
0 1 3 7 11 16 23 30 38 32 40 62 63 
0 2 1 3 4 8 13 9 14 19 26 33 40 32 51 56 60 62 63 
0 1 2 8 13 9 14 19 26 33 41 40 32 51 56 63 
0 1 3 4 8 13 19 25 32 39 40 33 34 53 60 63 
0 1 3 4 8 13 9 14 19 26 33 47 40 32 51 56 63 
0 2 4 1 3 7 8 13 19 33 40 32 51 56 60 62 63 
0 1 3 7 4 12 8 13 33 40 32 51 63 
0 2 1 3 7 12 8 13 19 26 33 40 32 51 56 60 63 
0 2 1 3 7 12 8 13 19 26 33 40 32 51 56 60 63 
0 1 3 7 4 8 13 9 14 33 32 51 56 60 63 
0 2 1 3 6 10 16 11 8 13 53 60 63 
0 1 3 6 10 15 16 11 8 13 63 
0 1 3 6 11 16 10 15 22 31 39 32 40 63 
0 1 3 7 11 17 23 38 39 32 40 33 53 60 63 
0 1 3 6 11 16 10 15 22 30 38 31 40 63 
0 1 3 6 11 16 30 38 39 32 40 33 53 60 63 
0 1 3 4 8 13 19 14 20 27 34 33 40 62 63 
0 1 3 4 8 13 19 14 20 27 34 33 41 53 60 62 63 
0 1 2 8 13 19 25 32 40 33 41 34 60 63 
0 1 2 8 13 19 14 20 27 34 33 41 60 62 63 
0 2 1 3 7 4 8 13 18 32 39 45 51 56 60 62 61 63 
0 2 1 3 7 4 8 13 19 25 32 39 51 56 60 62 59 58 61 63 
0 1 3 7 4 2 8 13 33 40 51 63 
0 1 3 6 10 16 11 8 13 53 60 63 
0 1 3 6 10 16 11 8 13 53 60 63 
0 2 1 3 6 10 16 11 8 13 53 60 63 
0 2 1 3 6 10 16 11 8 13 53 60 63 
0 2 4 1 3 6 10 11 8 13 48 53 60 62 63 
0 1 2 8 13 19 14 20 27 34 33 41 48 53 60 63 
0 2 8 9 13 19 14 20 27 34 33 41 53 60 63 
0 2 8 13 19 14 20 27 34 33 40 41 53 60 63 
0 2 8 9 14 20 27 35 42 34 33 40 41 60 63 
0 1 3 6 10 16 11 4 2 8 13 63 
0 2 4 1 3 6 10 11 8 13 33 63 
0 2 1 3 7 12 8 13 18 32 39 45 51 56 60 62 61 63 
0 1 3 6 11 7 4 8 13 18 32 51 55 59 56 63 
0 1 3 4 8 2 5 9 13 19 25 32 39 45 51 56 60 62 63 
0 2 1 3 7 4 8 13 19 26 33 40 32 51 56 60 63 
0 1 3 7 4 2 5 8 13 9 14 33 32 60 63 
0 1 4 2 8 13 9 14 20 33 40 32 51 63 
0 1 2 4 8 13 19 9 14 20 33 40 32 51 63 
0 1 3 7 11 17 12 8 18 13 9 33 63 
0 1 3 6 10 16 11 8 5 9 33 63 
0 1 3 6 10 16 23 17 12 8 13 9 33 40 63 
0 1 3 7 11 17 12 8 13 9 14 34 41 60 63 
0 1 3 7 11 16 17 23 30 38 45 53 60 63 
0 1 3 7 12 8 13 19 14 33 32 40 62 63 
0 1 3 6 10 16 11 8 9 13 63 
0 1 3 6 10 16 11 8 9 14 34 48 53 60 63 
0 1 3 6 10 11 16 22 30 38 31 32 63 
0 1 3 7 11 16 30 38 39 32 40 33 63 
0 1 3 4 8 13 9 14 19 26 34 27 48 41 60 62 63 
0 1 2 4 8 13 19 14 20 27 34 33 41 53 60 62 63 
0 1 3 4 8 13 19 14 20 27 34 33 41 53 60 62 63 
0 1 7 8 13 19 14 20 27 34 41 48 53 60 63 
0 2 8 13 9 19 14 20 27 34 33 41 48 53 60 62 63 
0 1 3 11 16 10 15 28 36 43 22 63 
0 2 1 3 7 8 13 19 25 32 39 45 51 56 60 62 61 63 
0 2 1 3 4 8 13 19 25 32 39 45 51 56 60 62 59 55 61 63 
0 1 3 7 12 8 13 9 14 33 32 51 56 60 63 
0 1 3 6 11 7 8 2 5 9 14 33 41 48 53 60 62 63 
0 1 3 11 16 10 15 22 30 38 31 40 63 
0 1 3 6 10 11 16 30 38 31 32 40 63 
0 1 4 8 9 14 19 26 33 41 34 20 48 53 60 63 
0 1 4 8 13 19 14 26 34 27 41 33 40 63 
0 1 3 7 4 8 13 9 14 33 32 51 56 60 63 
0 2 1 3 7 4 8 13 9 14 33 32 51 56 60 63 
0 1 4 8 9 14 19 26 33 40 41 34 48 53 60 62 63 
0 2 1 3 7 4 8 12 17 23 38 45 51 56 60 62 59 55 61 63 
0 2 1 3 7 12 8 13 18 32 39 45 51 56 60 62 61 63 
0 2 8 7 4 1 3 6 11 17 24 32 39 45 51 56 60 62 61 63 
0 1 3 7 4 2 5 8 9 13 18 24 32 51 56 63 
0 1 3 4 8 2 5 9 14 19 13 18 24 32 39 51 56 60 62 63 
0 2 1 3 7 11 16 23 17 12 8 13 51 63 
0 1 3 7 12 8 2 5 9 13 33 40 32 51 63 
0 1 3 7 12 8 2 5 9 14 33 40 32 51 56 63 
0 1 3 7 11 17 12 8 13 9 14 25 32 51 56 63 
0 1 3 7 4 8 18 13 9 14 33 40 32 63 
0 1 3 6 10 16 11 4 2 5 8 13 40 63 
0 1 3 4 8 13 9 19 14 20 26 33 40 32 51 56 60 62 63 
0 2 1 3 6 10 16 11 8 13 53 60 63 
0 1 3 6 10 16 11 8 13 53 60 63 
0 1 3 4 8 13 19 14 20 27 34 33 41 53 60 62 63 
0 1 7 8 13 19 14 20 27 34 41 48 53 60 63 
0 1 3 11 10 15 28 36 43 22 44 54 58 61 63 
0 1 3 6 10 15 21 28 36 43 37 29 22 30 31 56 63 
0 1 3 11 10 15 22 29 28 36 43 30 44 49 61 63 
0 1 3 11 10 15 28 36 22 30 44 49 61 63 
0 11 16 10 15 21 28 36 29 22 30 38 44 43 49 54 58 61 63 
0 2 1 3 7 11 17 12 8 13 18 24 32 51 56 60 63 
0 1 3 6 11 17 12 8 13 9 14 33 40 32 51 63 
0 1 3 7 11 17 12 8 13 9 14 33 40 51 56 63 
0 1 3 6 10 16 11 8 13 53 60 63 
0 1 3 6 10 16 11 8 13 53 60 63 
0 1 3 6 10 16 11 8 13 40 62 63 
0 2 1 3 6 10 16 11 8 13 53 60 63 
0 2 1 3 6 10 16 11 8 13 53 60 63 
0 2 1 3 6 10 16 11 8 13 53 60 63 
0 1 3 6 11 16 30 38 39 32 40 33 53 60 63 
0 1 3 6 11 16 23 38 39 32 40 33 53 60 63 
0 1 2 8 13 19 14 20 27 34 33 41 48 53 60 63 
0 1 2 8 13 19 14 20 27 34 33 40 62 63 
0 1 3 4 8 13 19 14 20 27 34 33 41 53 60 62 63 
0 2 1 3 7 8 13 19 14 20 33 40 32 51 56 60 63 
0 1 3 7 11 16 23 38 39 32 40 33 63 
0 1 3 7 11 16 23 30 38 32 40 62 63 
0 1 2 8 13 19 14 20 27 34 33 41 60 62 63 
0 2 1 3 4 8 12 17 24 32 39 45 51 56 60 62 59 55 58 61 63 
0 1 3 7 11 17 12 8 4 2 5 9 32 51 63 
0 1 3 4 2 5 8 7 11 17 24 32 39 45 51 56 60 62 63 
0 2 1 3 6 11 17 7 4 8 13 18 24 32 51 63 
0 1 3 7 8 4 2 5 9 14 33 40 51 56 63 
0 1 3 7 4 8 13 9 14 33 40 32 51 56 63 
0 1 3 11 17 12 8 4 2 5 9 14 41 60 63 
0 1 4 2 8 13 9 14 20 33 40 32 51 63 
0 1 3 4 8 9 13 19 14 20 26 33 40 32 51 56 60 63 
0 1 3 7 11 17 12 8 13 9 14 33 41 40 63 
0 2 1 3 6 10 16 11 8 13 53 60 63 
0 1 3 6 10 15 22 16 11 8 13 63 
0 1 3 4 8 13 19 14 20 27 34 33 40 62 63 
0 1 3 4 8 13 19 14 20 27 34 33 41 53 60 62 63 
0 1 2 8 13 19 14 20 27 34 33 41 60 62 63 
0 2 8 13 19 14 20 27 34 33 41 53 60 56 63 
0 1 7 8 13 19 14 20 27 34 41 48 53 60 63 
0 2 8 9 14 20 27 35 42 34 25 33 40 62 63 
0 1 3 7 4 8 2 5 9 14 33 32 51 56 60 63 
0 1 2 4 7 8 13 9 14 33 40 32 51 56 63 
0 2 1 3 7 4 8 9 14 19 26 33 40 32 51 56 60 62 63 
0 2 1 3 6 10 16 11 8 13 53 60 63 
0 1 3 6 10 15 22 16 11 8 13 63 
0 1 3 7 11 17 23 38 31 39 32 40 33 63 
0 1 3 7 11 17 23 38 39 32 40 33 41 60 63 
0 1 2 8 13 19 14 20 27 34 33 40 62 63 
0 2 8 13 19 14 20 27 34 33 41 48 53 60 62 63 
0 2 8 13 19 14 20 27 34 33 40 41 53 60 63 
0 1 3 6 10 16 11 8 13 53 60 63 
0 1 3 11 16 23 30 38 39 32 40 63 
0 1 3 6 11 16 23 38 39 32 40 33 41 60 63 
0 1 3 7 11 16 23 38 39 32 40 33 41 63 
0 2 1 3 7 12 8 13 18 32 39 45 51 56 60 62 61 63 
0 2 4 1 3 7 8 13 19 25 32 39 45 51 56 60 62 61 63 
0 2 1 3 7 11 17 12 8 13 25 32 51 56 60 62 63 
0 1 3 11 7 8 4 2 5 9 25 32 51 63 
0 1 3 4 8 9 13 19 14 20 26 33 40 32 51 56 60 63 
0 2 1 3 7 11 16 23 17 12 8 13 63 
0 2 1 3 6 10 16 11 8 13 53 60 63 
0 1 3 7 11 16 23 38 45 39 32 40 33 41 60 63 
0 1 3 7 11 10 16 23 31 32 40 63 
0 1 3 6 11 16 23 38 39 32 40 33 41 60 63 
0 1 2 4 8 13 19 14 20 27 34 33 41 53 60 62 63 
0 1 4 8 13 9 14 19 26 33 40 41 34 48 53 60 63 
0 1 3 4 8 13 19 14 20 27 34 33 41 53 60 62 63 
0 1 2 8 13 19 14 20 27 34 33 41 60 62 63 
0 2 8 9 14 20 27 35 42 34 25 33 41 53 60 63 
0 2 5 9 14 20 27 35 42 48 53 41 34 60 63 
0 2 1 3 7 4 8 13 18 32 39 45 51 56 60 62 61 63 
0 1 3 7 8 4 2 5 9 14 33 40 51 56 63 
0 2 1 3 7 11 17 12 8 13 9 14 33 41 60 62 63 
0 2 1 3 7 8 13 9 14 33 40 32 51 63 
0 2 1 3 6 10 16 11 8 13 53 60 63 
0 1 3 6 10 16 23 17 8 13 53 60 63 
0 1 3 7 11 16 23 38 39 32 40 33 41 63 
0 2 8 13 19 14 20 27 34 33 32 40 62 63 
0 1 2 8 13 19 14 20 27 34 33 40 62 63 
0 2 1 3 7 4 8 13 9 14 33 40 32 51 56 63 
0 1 3 4 8 13 19 14 20 27 34 33 40 62 63 
0 1 3 6 10 16 11 8 9 14 33 41 60 63 
0 1 3 4 8 13 19 14 20 27 34 33 41 48 53 60 62 63 
0 1 3 6 10 16 11 8 13 53 60 63 
0 1 3 6 11 7 4 8 13 18 32 51 56 60 62 63 
0 1 3 11 7 4 12 8 13 25 32 51 56 63 
0 2 1 3 6 10 16 11 4 8 13 25 32 56 63 
0 1 3 7 4 8 18 13 9 14 33 40 32 63 
0 1 3 6 11 7 8 4 2 5 9 33 63 
0 1 3 7 4 12 8 13 9 14 33 40 32 51 63 
0 1 3 7 4 8 13 9 14 33 40 32 51 56 63 
0 2 8 4 1 3 11 17 23 16 10 30 51 63 
0 1 3 7 12 8 13 9 14 25 32 40 62 63 
0 1 3 4 8 13 19 14 20 26 34 33 40 32 51 63 
0 2 1 3 7 8 13 19 26 34 41 33 25 32 60 63 
0 1 3 7 11 16 10 15 22 30 38 32 60 63 
0 1 3 11 16 23 38 45 39 32 40 33 48 53 60 63 
0 1 3 4 8 13 19 14 20 27 34 33 41 53 60 62 63 
0 1 2 8 13 19 14 20 27 34 33 41 60 62 63 
0 1 2 8 13 19 14 20 27 34 33 41 48 53 60 63 
0 1 3 11 10 15 22 29 28 36 43 30 44 49 61 63 
0 1 3 11 10 15 28 36 22 30 44 49 61 63 
0 2 1 3 4 8 13 18 24 32 39 45 51 56 60 62 59 55 61 63 
0 1 3 6 11 7 4 2 8 13 25 32 51 63 
0 1 3 6 10 16 11 8 13 53 60 63 
0 1 3 6 10 16 11 8 13 53 60 63 
0 1 3 6 10 11 4 2 8 13 53 60 63 
0 1 3 6 10 11 4 2 8 13 53 60 63 
0 1 3 11 17 23 38 45 39 32 40 33 41 48 53 60 62 63 
0 1 3 11 17 23 38 45 39 32 40 33 41 48 53 60 62 63 
0 1 3 11 17 23 30 38 39 32 40 62 63 
0 2 8 9 13 19 14 20 27 34 33 41 53 60 63 
0 2 8 13 19 14 20 26 34 27 41 33 40 62 63 
0 1 3 6 10 16 11 8 13 40 62 63 
0 1 3 6 10 16 11 8 13 53 60 63 
0 1 3 11 16 23 30 38 39 32 40 63 
0 1 4 8 13 19 14 26 34 27 41 33 40 63 
0 2 5 8 4 1 3 7 11 17 18 32 51 55 59 56 60 63 
0 1 3 7 11 17 12 8 4 2 5 9 32 51 63 
0 2 5 8 4 1 3 7 11 10 16 51 55 59 56 63 
0 2 4 1 3 7 8 13 19 25 32 39 45 51 55 59 56 60 63 
0 1 3 6 10 16 11 4 2 5 8 13 51 63 
0 2 4 1 3 6 10 16 11 8 13 18 56 63 
0 2 4 1 3 11 7 8 13 9 14 25 32 51 56 63 
0 2 4 1 3 7 8 13 9 14 25 32 51 56 60 62 63 
0 2 1 3 7 4 8 13 9 14 25 32 51 56 60 62 63 
0 2 1 3 7 12 8 13 9 14 25 32 51 56 60 62 63 
0 2 1 3 6 10 16 11 8 13 25 32 51 63 
0 2 4 1 3 6 10 16 11 8 13 18 60 63 
0 2 4 1 3 6 10 16 11 8 13 40 62 63 
0 1 3 11 7 4 2 8 13 40 62 63 
0 2 1 3 7 4 8 13 9 14 33 32 40 62 63 
0 2 1 3 7 12 8 13 9 14 33 32 40 62 63 
0 2 1 3 6 10 16 11 8 13 40 62 63 
0 2 1 3 6 10 16 11 8 13 53 60 63 
0 2 1 3 4 8 13 9 14 19 25 32 40 33 41 48 53 60 62 63 
0 2 1 3 6 10 16 11 8 13 53 60 63 
0 1 3 6 10 16 11 8 13 9 63 
0 2 1 3 7 8 13 9 14 25 32 40 62 63 
0 1 3 6 10 16 11 8 9 14 33 40 62 63 
0 2 1 3 7 11 16 10 15 22 30 62 63 
0 2 1 3 6 11 16 10 15 22 30 38 32 40 63 
0 1 3 6 10 16 11 8 9 14 34 48 53 60 63 
0 1 3 4 8 13 9 14 19 25 32 40 33 34 48 53 60 63 
0 1 3 7 11 16 10 15 22 30 38 32 60 63 
0 1 3 7 11 16 10 15 22 30 38 32 60 63 
0 1 3 6 11 16 10 15 22 30 38 32 40 63 
0 1 3 6 11 16 10 15 22 30 38 32 33 63 
0 1 3 6 11 16 23 30 38 39 32 40 63 
0 1 3 11 16 23 30 38 31 32 60 62 63 
0 1 3 4 8 13 19 14 20 27 34 33 41 53 60 62 63 
0 1 3 4 8 13 19 14 20 27 34 33 41 53 60 62 63 
0 1 2 8 13 19 14 20 27 34 33 41 60 62 63 
0 1 7 8 13 19 14 20 27 34 41 60 62 63 
0 2 8 13 19 25 32 33 26 20 27 48 41 60 63 
0 2 8 13 19 25 32 33 26 34 27 48 53 60 62 63 
0 1 3 6 10 15 22 16 23 30 37 28 36 43 44 63 
0 1 3 6 10 15 16 11 8 13 63 
0 2 5 8 4 1 3 7 12 18 32 39 45 51 55 58 59 56 60 62 63 
0 2 5 8 4 1 3 11 17 12 18 32 39 45 51 55 59 56 60 63 
0 1 3 11 7 4 2 5 9 13 8 51 63 
0 2 5 9 13 8 4 1 3 17 12 18 32 51 56 63 
0 2 4 1 3 6 10 16 11 8 13 18 56 63 
0 2 4 1 3 11 7 8 13 9 14 25 32 51 56 63 
0 2 1 3 7 4 8 13 9 14 25 32 51 56 60 62 63 
0 2 1 3 7 12 8 13 9 14 25 32 51 56 60 62 63 
0 2 4 1 3 7 12 8 13 9 14 33 40 53 56 63 
0 2 4 1 3 7 12 8 13 9 14 33 32 40 62 63 
0 2 4 1 3 6 10 16 11 8 13 40 62 63 
0 1 3 11 7 4 2 8 13 40 62 63 
0 2 1 3 7 4 8 13 9 14 33 32 40 62 63 
0 2 1 3 7 12 8 13 9 14 33 32 40 62 63 
0 2 1 3 6 11 7 8 13 9 14 33 40 62 63 
0 1 3 6 10 16 11 4 8 9 14 33 40 62 63 
0 2 1 3 6 10 16 11 8 13 53 60 63 
0 1 3 6 11 7 8 13 9 14 33 32 60 63 
0 1 3 6 10 16 11 8 9 14 33 40 62 63 
0 2 1 3 7 11 16 10 15 22 30 62 63 
0 1 3 6 10 16 11 8 9 14 33 41 60 63 
0 2 1 3 6 11 16 10 15 22 30 38 32 40 63 
0 1 3 7 11 16 23 38 39 32 25 33 40 63 
0 1 3 6 11 16 10 15 22 30 38 32 40 63 
0 1 3 6 10 16 11 8 9 14 34 48 53 60 63 
0 1 3 6 11 16 23 38 39 32 25 33 40 62 63 
0 1 3 7 11 16 10 15 22 30 38 32 60 63 
0 1 3 7 11 16 10 15 22 30 38 32 60 63 
0 1 3 6 11 16 10 15 22 30 38 32 40 63 
0 1 3 11 16 23 30 38 31 32 60 62 63 
0 1 3 4 8 13 19 14 20 27 34 33 41 53 60 62 63 
0 1 4 8 13 19 14 20 27 34 41 33 32 60 62 63 
0 1 2 8 13 19 14 20 27 34 33 41 60 62 63 
0 1 7 8 13 19 14 20 27 34 41 60 62 63 
0 1 3 7 11 16 10 15 22 28 36 43 63 
0 1 3 7 11 16 10 15 28 36 43 30 50 63 
0 1 3 6 11 16 10 15 22 28 36 43 44 63 
0 1 3 6 11 16 10 15 28 36 43 22 44 63 
0 1 3 11 10 15 22 30 38 31 32 63 
0 1 3 4 8 13 19 14 20 27 34 33 41 53 60 62 63 
0 1 7 8 13 19 14 20 27 34 41 48 53 60 63 
0 1 3 11 10 16 22 30 38 31 32 63 
0 2 5 8 4 1 3 7 11 17 18 32 51 55 59 56 60 63 
0 2 8 4 1 3 7 12 18 32 39 45 50 54 58 55 51 56 63 
0 2 5 9 13 8 4 1 3 12 18 32 45 51 56 60 62 63 
0 2 5 8 4 1 3 6 11 17 12 18 32 39 45 51 56 60 62 63 
0 2 5 9 13 8 4 1 3 17 12 18 32 51 56 63 
0 2 5 9 13 8 4 1 3 10 16 38 45 51 56 60 62 63 
0 2 4 1 3 11 7 8 13 9 14 25 32 51 56 63 
0 2 4 1 3 7 8 13 9 14 25 32 51 56 60 62 63 
0 2 1 3 7 4 8 13 9 14 25 32 51 56 60 62 63 
0 2 1 3 7 4 8 13 9 14 33 40 32 51 56 63 
0 1 3 11 7 4 2 8 13 40 51 63 
0 2 4 1 3 11 7 8 13 33 40 32 51 63 
0 2 4 1 3 7 8 9 14 19 26 33 40 32 51 56 60 62 63 
0 2 1 3 4 8 13 9 14 19 26 33 40 32 51 56 60 62 63 
0 2 4 1 3 6 10 16 11 8 13 40 62 63 
0 2 4 1 3 6 10 16 11 8 13 53 60 63 
0 2 4 1 3 6 10 16 11 8 13 53 60 63 
0 1 3 6 10 16 11 8 13 40 62 63 
0 1 3 6 10 16 11 8 13 53 56 63 
0 2 1 3 6 10 16 11 8 13 53 60 63 
0 2 1 3 6 10 16 11 8 13 53 60 63 
0 1 3 6 10 16 11 8 13 40 62 63 
0 1 3 6 10 16 11 8 9 14 33 41 60 63 
0 1 3 6 10 16 11 8 9 14 34 48 53 60 63 
0 1 3 6 11 16 10 15 29 30 38 32 40 63 
0 1 3 6 11 16 10 15 29 37 30 38 40 63 
0 1 3 4 8 13 19 14 20 27 34 33 41 48 53 60 62 63 
0 1 3 4 8 13 19 14 20 27 34 33 40 62 63 
0 1 3 4 8 13 19 14 20 27 34 33 41 53 60 62 63 
0 1 2 8 13 19 14 20 27 34 33 41 60 62 63 
0 1 7 8 13 19 14 20 27 34 41 60 62 63 
0 1 3 7 11 16 10 15 28 36 22 44 58 61 63 
0 1 3 7 11 16 10 15 28 36 43 30 61 63 
0 1 3 7 11 16 10 15 28 36 43 30 61 63 
0 1 3 6 11 16 10 15 28 36 22 30 44 61 63 
0 1 3 6 11 16 10 15 28 36 43 22 44 58 61 63 
0 1 3 6 11 16 10 15 28 36 43 22 44 58 61 63 
0 1 3 6 11 16 10 15 28 36 22 30 44 63 
0 2 1 3 6 10 16 11 8 13 53 60 63 
0 1 3 6 10 15 16 11 8 13 63 
0 1 3 7 11 16 10 15 22 30 38 32 60 63 
0 1 3 7 11 16 10 15 22 30 38 32 60 63 
0 1 3 6 11 16 10 15 22 30 38 32 40 63 
0 2 5 8 4 1 3 7 12 18 32 39 51 55 58 61 59 56 60 62 63 
0 2 4 1 3 7 8 13 19 25 32 39 51 55 58 61 59 56 60 63 
0 1 3 7 11 17 12 8 4 2 5 9 32 51 63 
0 2 5 9 13 8 4 1 3 17 12 18 32 51 56 63 
0 2 4 1 3 7 12 8 13 9 14 25 32 51 56 60 62 63 
0 2 4 1 3 7 11 17 12 8 13 33 40 51 56 63 
0 2 1 3 7 4 8 13 9 14 25 32 51 56 60 62 63 
0 2 1 3 7 4 8 13 9 14 33 40 32 51 56 63 
0 2 1 3 7 4 8 13 9 14 33 40 32 51 56 63 
0 2 1 3 7 12 8 13 9 14 33 40 32 51 56 63 
0 2 4 1 3 6 10 16 11 8 13 40 62 63 
0 2 4 1 3 6 10 16 11 8 13 53 60 63 
0 2 4 1 3 6 10 16 11 8 13 53 60 63 
0 1 3 6 10 16 11 8 13 40 51 56 63 
0 2 1 3 6 10 16 11 8 13 40 62 63 
0 2 1 3 6 10 16 11 8 13 53 60 63 
0 2 1 3 6 10 16 11 8 13 53 60 63 
0 1 3 6 10 16 11 8 13 40 62 63 
0 2 1 3 7 11 16 10 15 22 30 62 63 
0 1 3 6 10 16 11 8 9 14 33 41 60 63 
0 2 1 3 6 11 16 10 15 22 30 38 32 40 63 
0 1 3 6 10 15 22 16 11 8 13 63 
0 1 3 6 10 16 11 8 13 53 60 63 
0 1 3 6 10 16 11 8 9 14 34 48 53 60 63 
0 1 3 6 11 16 10 15 22 30 38 32 33 63 
0 1 3 6 11 16 10 15 22 30 38 31 40 63 
0 1 3 11 10 16 23 31 39 32 40 63 
0 1 3 11 10 16 23 31 39 32 40 63 
0 1 4 8 13 19 14 20 27 34 48 41 33 32 63 
0 1 2 8 13 19 14 20 27 34 33 41 60 62 63 
0 1 7 8 13 19 14 20 27 34 41 60 62 63 
0 2 1 3 7 4 8 13 18 24 32 39 51 55 58 61 59 56 60 63 
0 1 3 7 11 16 10 15 22 30 38 32 60 63 
0 1 3 7 11 16 10 15 22 30 38 32 60 63 
0 1 4 8 13 19 14 20 27 34 33 32 40 63 
0 2 5 8 4 1 3 7 12 18 32 39 51 55 58 61 59 56 60 62 63 
0 2 1 3 7 4 8 13 19 25 32 39 51 55 58 61 59 56 60 63 
0 2 4 1 3 7 8 13 19 25 32 39 51 55 58 61 59 56 60 63 
0 2 4 1 3 7 8 13 18 32 39 45 50 54 58 55 63 
0 2 5 9 13 8 4 1 3 17 12 18 32 51 56 63 
0 1 3 4 2 5 9 14 19 13 8 12 18 32 51 56 60 63 
0 2 1 3 7 4 8 13 9 14 25 32 51 56 60 62 63 
0 2 1 3 7 4 8 13 9 14 33 40 32 51 56 63 
0 1 3 11 7 4 2 8 13 40 51 63 
0 2 4 1 3 11 7 8 13 33 40 32 51 63 
0 2 4 1 3 7 8 9 14 19 26 33 40 32 51 56 60 62 63 
0 2 1 3 4 8 13 9 14 19 26 33 40 32 51 56 60 62 63 
0 2 4 1 3 6 10 16 11 8 13 40 62 63 
0 2 4 1 3 6 10 16 11 8 13 53 60 63 
0 2 4 1 3 6 10 16 11 8 13 53 60 63 
0 1 3 6 10 16 11 4 2 8 13 63 
0 2 4 1 3 6 10 16 11 8 13 53 60 63 
0 2 1 3 6 11 17 12 8 13 9 14 33 41 53 60 63 
0 2 1 3 6 10 16 11 8 13 53 60 63 
0 2 1 3 6 10 16 11 8 13 53 60 63 
0 2 1 3 6 10 16 11 8 13 53 60 63 
0 1 3 6 10 15 22 16 11 8 13 40 63 
0 1 3 6 10 15 16 11 8 13 63 
0 1 3 6 10 16 11 8 9 14 34 48 53 60 63 
0 1 3 6 10 16 11 8 13 53 60 63 
0 1 3 7 11 16 10 15 29 30 38 31 60 63 
0 1 3 7 11 16 10 15 29 37 38 31 40 63 
0 1 3 4 8 13 19 14 20 27 34 33 41 53 60 62 63 
0 1 3 4 8 13 19 14 20 27 34 33 40 62 63 
0 1 2 4 8 13 19 14 20 27 34 33 41 53 60 62 63 
0 1 3 4 8 13 19 14 20 27 34 33 41 53 60 62 63 
0 1 7 8 13 19 14 20 27 34 41 60 62 63 
0 1 3 11 16 10 15 28 36 43 22 63 
0 1 3 6 11 16 10 15 28 36 43 22 63 
0 1 3 6 11 16 10 15 22 28 36 43 44 63 
0 2 1 3 7 4 8 13 18 24 32 39 51 55 58 61 59 56 60 63 
0 1 3 6 10 16 11 8 9 14 33 41 60 63 
0 1 3 6 11 16 10 15 22 30 38 31 40 63 
0 1 2 4 8 13 19 14 20 27 34 33 40 62 63 
0 1 7 8 13 19 14 20 27 34 40 62 63 
0 2 5 8 4 1 3 7 11 17 18 32 51 55 59 56 60 63 
0 2 5 9 13 8 4 1 3 12 18 32 45 51 56 60 62 63 
0 1 3 11 7 4 2 8 13 25 56 63 
0 2 4 1 3 6 10 16 11 12 8 13 18 32 51 63 
0 2 4 1 3 7 11 17 12 8 13 33 40 51 56 63 
0 2 1 3 7 4 8 13 9 14 25 32 51 56 60 62 63 
0 2 4 1 3 7 8 13 9 14 25 32 51 56 60 62 63 
0 2 1 3 7 4 8 13 9 14 33 40 32 51 56 63 
0 1 3 11 7 4 2 8 13 40 51 63 
0 2 4 1 3 11 7 8 13 33 40 32 51 63 
0 2 1 3 7 4 8 13 9 14 33 40 32 51 56 63 
0 2 1 3 4 8 13 9 14 19 26 33 40 32 51 56 60 62 63 
0 2 4 1 3 6 10 16 11 8 13 40 62 63 
0 1 3 11 7 4 2 8 13 40 62 63 
0 2 1 3 7 4 8 13 9 14 33 32 40 62 63 
0 1 3 7 4 8 13 9 14 33 32 40 62 63 
0 1 3 7 4 8 13 9 14 33 32 40 62 63 
0 2 1 3 7 12 8 13 9 14 33 32 40 62 63 
0 2 1 3 6 11 7 8 13 9 14 33 40 62 63 
0 1 3 7 12 8 13 9 14 33 32 40 62 63 
0 1 3 7 12 8 13 9 14 33 32 40 62 63 
0 2 1 3 6 10 16 11 8 13 53 60 63 
0 1 3 6 10 16 11 8 9 13 40 63 
0 1 3 6 10 16 11 8 9 14 33 40 62 63 
0 2 1 3 7 11 16 10 15 22 30 62 63 
0 1 3 6 10 15 16 11 8 13 40 63 
0 2 1 3 6 11 16 10 15 22 30 38 32 40 63 
0 1 3 7 11 16 23 38 39 32 25 33 40 63 
0 1 3 6 10 16 11 8 9 14 34 48 53 60 63 
0 1 3 6 11 16 23 38 39 32 25 33 40 62 63 
0 1 3 7 11 16 10 15 22 30 38 32 60 63 
0 1 3 7 11 16 10 15 22 30 38 32 60 63 
0 1 3 6 11 16 10 15 22 30 38 32 40 63 
0 1 3 4 8 13 19 14 20 27 34 33 53 60 62 63 
0 1 3 6 10 15 21 29 37 30 38 39 32 40 62 63 
0 1 2 8 13 19 14 20 27 34 33 40 62 63 
0 1 2 8 13 19 14 20 27 34 33 41 60 62 63 
0 1 7 8 13 19 14 20 27 34 41 60 62 63 
0 1 3 11 16 10 15 29 37 30 38 32 40 62 63 
0 1 3 7 11 10 15 29 37 30 38 32 40 62 63 
0 2 5 9 13 8 4 1 3 12 18 32 45 51 56 60 62 63 
0 2 5 8 4 1 3 6 11 17 12 18 32 39 45 51 56 60 62 63 
0 2 8 4 1 3 7 12 18 24 32 39 38 45 51 56 60 62 63 
0 2 5 9 13 8 4 1 3 10 16 38 45 51 56 60 62 63 
0 2 1 3 7 4 8 13 19 25 32 39 45 51 56 60 62 63 
0 2 4 1 3 6 11 7 12 8 13 33 40 32 51 63 
0 2 1 3 6 11 7 4 8 13 9 14 25 32 51 56 60 63 
0 2 1 3 7 4 8 13 9 14 25 32 51 56 60 62 63 
0 2 1 3 7 4 8 13 9 14 33 40 32 51 56 63 
0 2 1 3 7 12 8 13 9 14 33 40 32 51 56 63 
0 1 3 7 4 8 13 9 14 33 40 32 51 56 63 
0 1 3 7 4 8 13 9 14 33 40 32 51 56 63 
0 2 4 1 3 6 10 16 11 8 13 40 62 63 
0 2 1 3 7 4 8 13 9 14 33 32 40 62 63 
0 2 1 3 7 12 8 13 9 14 33 32 40 62 63 
0 2 1 3 6 10 16 11 8 13 40 62 63 
0 2 1 3 6 10 16 11 8 13 53 60 63 
0 2 1 3 6 10 16 11 8 13 53 60 63 
0 1 3 6 10 16 11 8 9 14 33 40 62 63 
0 2 1 3 7 11 16 10 15 22 30 62 63 
0 1 3 6 10 16 11 8 9 14 33 41 60 63 
0 2 1 3 7 8 13 9 14 34 41 33 40 62 63 
0 2 1 3 6 11 16 10 15 22 30 38 32 40 63 
0 1 3 4 8 13 9 14 19 26 34 41 33 32 40 62 63 
0 1 3 6 10 16 11 8 9 14 34 48 53 60 63 
0 1 3 4 8 13 9 14 19 26 34 41 33 40 53 60 63 
0 1 3 6 11 16 10 15 22 30 38 32 33 63 
0 1 3 6 11 16 10 15 22 30 38 32 33 63 
0 1 3 4 8 13 19 14 20 27 41 33 40 53 60 62 63 
0 1 3 4 8 13 19 14 20 27 34 33 41 53 60 62 63 
0 1 3 4 8 13 19 14 20 27 34 33 40 62 63 
0 1 3 4 8 13 19 26 34 27 41 33 40 53 60 63 
0 1 3 4 8 13 19 14 20 27 34 33 41 53 60 62 63 
0 1 4 8 13 19 26 20 27 34 33 32 40 63 
0 1 2 8 13 19 14 20 27 34 33 41 60 62 63 
0 2 8 13 19 14 20 27 34 33 32 40 62 63 
0 2 8 13 19 14 20 27 34 33 41 40 62 63 
0 1 3 6 11 16 10 15 22 30 38 32 40 63 
0 2 1 3 7 4 8 13 18 24 32 39 51 55 58 61 59 56 60 63 
0 2 1 3 7 4 8 13 19 25 32 39 51 55 58 61 59 56 60 63 
0 2 4 1 3 7 8 13 19 25 32 39 51 55 58 61 59 56 60 63 
0 2 5 8 4 1 3 11 17 12 18 32 39 45 51 56 60 62 63 
0 2 1 3 7 4 8 13 9 14 25 32 51 56 60 62 63 
0 2 1 3 7 12 8 13 9 14 25 32 51 56 60 62 63 
0 1 3 11 7 4 2 8 13 25 63 
0 2 1 3 7 4 8 13 9 14 33 40 32 51 56 63 
0 2 1 3 7 12 8 13 9 14 33 40 32 51 56 63 
0 2 4 1 3 6 10 16 11 8 13 40 62 63 
0 2 1 3 7 4 8 13 9 14 33 32 40 62 63 
0 2 1 3 7 12 8 13 9 14 33 32 40 62 63 
0 1 3 6 10 16 11 8 13 40 51 56 63 
0 2 4 1 3 7 8 13 19 14 20 33 32 40 62 63 
0 2 1 3 6 10 16 11 8 13 53 60 63 
0 2 1 3 4 8 13 9 14 19 25 32 40 33 41 48 53 60 62 63 
0 2 1 3 6 10 16 11 8 13 53 60 63 
0 2 1 3 7 8 13 9 14 25 32 40 62 63 
0 2 1 3 6 10 16 11 8 13 53 60 63 
0 1 3 6 10 15 22 16 11 8 13 40 63 
0 1 3 6 10 15 16 11 8 13 63 
0 1 3 6 10 15 22 16 11 8 13 63 
0 1 3 4 8 13 9 14 19 25 32 40 33 41 48 53 60 62 63 
0 1 3 6 10 16 11 8 9 14 34 48 53 60 63 
0 1 3 6 10 16 11 8 9 14 34 48 53 60 63 
0 1 3 6 10 16 11 8 13 53 60 63 
0 1 3 6 10 16 11 8 13 53 60 63 
0 1 3 6 10 16 11 8 13 53 60 63 
0 1 3 7 11 16 10 15 22 30 38 32 60 63 
0 1 3 4 8 13 19 14 20 27 34 41 33 32 40 63 
0 1 3 6 11 16 10 15 22 30 38 32 33 63 
0 1 3 6 11 16 10 15 22 30 38 31 60 62 63 
0 1 3 6 11 16 10 15 29 37 38 31 32 63 
0 1 3 6 11 16 10 15 29 30 38 31 32 63 
0 1 3 4 8 13 19 14 20 27 34 33 40 62 63 
0 1 4 8 13 19 14 20 27 34 33 32 40 63 
0 1 2 8 13 19 14 20 27 34 41 33 40 62 63 
0 1 3 7 11 16 10 15 28 36 43 30 50 63 
0 1 3 6 11 16 10 15 28 36 43 22 44 63 
0 1 3 6 11 16 10 15 22 30 38 32 33 63 
0 1 7 8 13 19 26 20 27 34 41 40 63 
0 1 3 4 8 13 19 26 27 34 41 33 40 53 60 62 63 
0 1 2 8 13 19 26 20 27 34 41 33 40 62 63 
0 2 5 8 4 1 3 7 12 18 32 39 51 55 58 61 59 56 60 62 63 
0 2 5 8 4 1 3 7 12 18 32 39 45 55 58 61 59 56 60 62 63 
0 2 5 9 13 8 4 1 3 12 18 32 45 51 56 60 62 63 
0 2 5 9 13 8 4 1 3 17 12 18 32 51 56 63 
0 2 5 8 4 1 3 6 11 17 12 18 32 39 45 51 56 60 62 63 
0 2 4 1 3 7 11 17 12 8 13 33 40 51 56 63 
0 2 1 3 7 4 8 13 9 14 33 40 32 51 56 63 
0 2 1 3 7 4 8 13 9 14 33 40 32 51 56 63 
0 2 1 3 7 12 8 13 9 14 33 40 32 51 56 63 
0 2 4 1 3 6 10 16 11 8 13 40 62 63 
0 2 4 1 3 6 10 16 11 8 13 53 60 63 
0 2 4 1 3 6 10 16 11 8 13 53 60 63 
0 2 1 3 7 4 8 13 9 14 33 41 40 62 63 
0 2 1 3 7 4 8 13 9 14 33 40 41 53 60 63 
0 2 4 1 3 7 8 13 9 14 34 33 40 62 63 
0 2 1 3 6 10 16 11 8 13 53 60 63 
0 2 1 3 6 10 16 11 8 13 53 60 63 
0 1 3 6 10 16 11 8 9 14 33 41 60 63 
0 1 3 6 10 16 11 8 9 14 34 48 53 60 63 
0 1 3 4 8 13 9 14 19 26 34 41 33 40 53 60 63 
0 1 3 4 8 13 19 14 20 27 34 33 41 53 60 62 63 
0 1 3 4 8 13 19 14 20 27 34 33 40 62 63 
0 1 4 8 13 19 14 20 27 34 33 32 40 63 
0 1 4 8 13 19 14 20 27 34 33 32 40 63 
0 1 4 8 13 19 26 20 27 34 33 32 40 63 
0 1 2 8 13 19 14 20 27 34 33 41 60 62 63 
0 2 8 13 19 26 20 27 34 33 25 32 40 63 
0 2 5 9 8 4 1 3 12 18 32 51 55 59 56 60 63 
0 1 3 6 10 16 11 8 9 14 34 48 53 60 63 
0 1 3 6 10 16 11 8 9 14 33 41 60 63 
0 1 3 6 10 16 11 8 9 14 33 40 62 63 
0 1 3 11 16 10 15 22 30 38 45 53 60 62 63 
0 2 8 13 9 19 14 20 27 34 33 40 53 60 63 
0 1 3 11 16 10 15 22 30 38 45 53 60 62 63 
0 2 5 8 4 1 3 7 12 18 32 39 45 51 55 59 56 60 62 63 
0 2 5 8 4 1 3 7 11 17 18 32 51 55 59 56 60 63 
0 2 4 1 3 7 8 13 18 32 39 45 50 54 58 55 63 
0 2 5 9 13 8 4 1 3 17 12 18 32 51 56 63 
0 2 5 8 4 1 3 6 11 17 12 18 32 39 45 51 56 60 62 63 
0 2 4 1 3 7 12 8 13 9 14 25 32 51 56 60 62 63 
0 2 4 1 3 11 7 8 13 9 14 25 32 51 56 63 
0 1 3 11 7 4 2 8 13 25 56 63 
0 2 4 1 3 7 8 13 9 14 25 32 51 56 60 62 63 
0 1 3 11 7 4 2 8 13 25 40 63 
0 2 1 3 7 4 8 13 9 14 25 32 40 62 63 
0 2 4 1 3 6 10 16 11 8 13 40 62 63 
0 1 3 7 4 8 13 9 14 33 32 40 62 63 
0 2 1 3 6 10 16 11 8 13 25 32 63 
0 1 3 7 4 8 13 9 14 33 32 40 62 63 
0 1 3 7 12 8 13 9 14 33 32 40 62 63 
0 1 3 7 12 8 13 9 14 33 32 40 62 63 
0 2 1 3 6 10 16 11 8 13 63 
0 2 4 1 3 11 7 8 13 14 20 33 41 60 63 
0 1 3 11 7 4 2 8 13 53 60 63 
0 2 1 3 6 10 16 11 8 13 53 60 63 
0 2 1 3 6 10 16 11 8 13 53 60 63 
0 2 1 3 6 10 16 11 8 13 53 60 63 
0 1 3 6 10 16 11 8 9 13 63 
0 1 3 6 10 16 11 8 9 14 33 41 60 63 
0 2 1 3 7 11 16 10 15 22 30 62 63 
0 2 1 3 6 11 16 10 15 22 30 38 32 40 63 
0 1 3 6 10 15 22 16 11 8 13 63 
0 1 3 6 10 16 11 8 9 14 34 48 53 60 63 
0 1 3 4 8 13 19 14 20 27 34 33 53 60 62 63 
0 1 3 4 8 13 19 14 20 27 34 33 41 53 60 62 63 
0 1 4 8 13 19 14 20 27 34 33 32 40 63 
0 1 2 8 13 19 14 20 27 34 33 41 60 62 63 
0 1 7 8 13 19 14 20 27 34 41 60 62 63 
0 1 3 6 11 16 10 15 22 28 36 43 44 63 
0 1 3 7 11 16 10 15 22 28 36 43 63 
0 1 3 7 11 16 10 15 22 28 36 43 63 
0 1 3 6 11 16 10 15 22 28 36 43 44 63 
0 1 3 11 16 10 15 29 37 30 38 32 40 62 63 
0 1 3 7 11 16 10 15 22 30 38 32 60 63 
0 1 3 11 16 10 15 22 30 38 31 40 63 
0 1 3 7 11 16 10 15 22 30 38 32 60 63 
0 1 3 11 16 10 15 22 30 38 32 40 63 
